nDays = 5;
dayDuration = 22;

labRooms = 1;
classRooms = 3;
pcRooms = 5;

nEvents = 51; %46 + 5 breaks

%first events are auxiliar breaks
preassignedEventStart = [13,26,39,52,65,
  0,0,0,0,0,0,0,
  0,0,0,0,0,0,
  0,0,0,0,0,0,0,0,0,
  0,0,0,0,0,0,
  0,0,0,0,0,0,0,0,0,0,0,0,0,0,0,0,0,0];

eventDuration = [2,2,2,2,2,
  4,4,4,4,4,4,4,
  4,4,4,4,4,4,
  4,2,2,2,2,4,4,2,2,
  2,2,4,2,2,4,
  4,4,4,4,4,4,4,4,4,4,4,4,4,4,4,4,4,4];

eventExclusions = [
%Breaks

{2,3,4,5,6,7,8,9,10,11,12,13,14,15,16,17,18,19,20,21,22,23,24,25,26,27,28,29,30,31,32,33,34,35,36,37,38,39,40,41,42,43,44,45,46,47,48,49,50,51},
{1,3,4,5,6,7,8,9,10,11,12,13,14,15,16,17,18,19,20,21,22,23,24,25,26,27,28,29,30,31,32,33,34,35,36,37,38,39,40,41,42,43,44,45,46,47,48,49,50,51},
{1,2,4,5,6,7,8,9,10,11,12,13,14,15,16,17,18,19,20,21,22,23,24,25,26,27,28,29,30,31,32,33,34,35,36,37,38,39,40,41,42,43,44,45,46,47,48,49,50,51},
{1,2,3,5,6,7,8,9,10,11,12,13,14,15,16,17,18,19,20,21,22,23,24,25,26,27,28,29,30,31,32,33,34,35,36,37,38,39,40,41,42,43,44,45,46,47,48,49,50,51},
{1,2,3,4,6,7,8,9,10,11,12,13,14,15,16,17,18,19,20,21,22,23,24,25,26,27,28,29,30,31,32,33,34,35,36,37,38,39,40,41,42,43,44,45,46,47,48,49,50,51},

%Day 1
{1,2,3,4,5,7,8,9,10,11,12,13,14,15,16,17,18,19,20,21,22,23,24,25,26,27,28,29,30,31,32,33,34,35,36,37,38,39,40,41,42,43,44,45,46,47,48,49,50,51},
{},{},{},{},{},{1,2,3,4,5,6,7,8,9,10,11,13,14,15,16,17,18,19,20,21,22,23,24,25,26,27,28,29,30,31,32,33,34,35,36,37,38,39,40,41,42,43,44,45,46,47,48,49,50,51},

%Day 2
{1,2,3,4,5,6,7,8,9,10,11,12,14,15,16,17,18,19,20,21,22,23,24,25,26,27,28,29,30,31,32,33,34,35,36,37,38,39,40,41,42,43,44,45,46,47,48,49,50,51},
{1,2,3,4,5,6,7,8,9,10,11,12,13,15,16,17,18,19,20,21,22,23,24,25,26,27,28,29,30,31,32,33,34,35,36,37,38,39,40,41,42,43,44,45,46,47,48,49,50,51},
{},{},
{1,2,3,4,5,6,7,8,9,10,11,12,13,14,15,16,18,19,20,21,22,23,24,25,26,27,28,29,30,31,32,33,34,35,36,37,38,39,40,41,42,43,44,45,46,47,48,49,50,51},
{1,2,3,4,5,6,7,8,9,10,11,12,13,14,15,16,17,19,20,21,22,23,24,25,26,27,28,29,30,31,32,33,34,35,36,37,38,39,40,41,42,43,44,45,46,47,48,49,50,51},

%Day3
{1,2,3,4,5,6,7,8,9,10,11,12,13,14,15,16,17,18,20,21,22,23,24,25,26,27,28,29,30,31,32,33,34,35,36,37,38,39,40,41,42,43,44,45,46,47,48,49,50,51},
{},{},{},{},{},
{1,2,3,4,5,6,7,8,9,10,11,12,13,14,15,16,17,18,19,20,21,22,23,24,26,27,28,29,30,31,32,33,34,35,36,37,38,39,40,41,42,43,44,45,46,47,48,49,50,51},
{},{},

%Day 4
{1,2,3,4,5,6,7,8,9,10,11,12,13,14,15,16,17,18,19,20,21,22,23,24,25,26,27,29,30,31,32,33,34,35,36,37,38,39,40,41,42,43,44,45,46,47,48,49,50,51},
{},
{1,2,3,4,5,6,7,8,9,10,11,12,13,14,15,16,17,18,19,20,21,22,23,24,25,26,27,28,29,31,32,33,34,35,36,37,38,39,40,41,42,43,44,45,46,47,48,49,50,51},
{1,2,3,4,5,6,7,8,9,10,11,12,13,14,15,16,17,18,19,20,21,22,23,24,25,26,27,28,29,30,32,33,34,35,36,37,38,39,40,41,42,43,44,45,46,47,48,49,50,51},
{},
{1,2,3,4,5,6,7,8,9,10,11,12,13,14,15,16,17,18,19,20,21,22,23,24,25,26,27,28,29,30,31,32,34,35,36,37,38,39,40,41,42,43,44,45,46,47,48,49,50,51},

%Day 5
{},{},{},{},{},{},{},{},{},{},{},{},{},{},{},{},{},{}];


/*
eventExclusions = [{},{},{},{},{},
{},{},{},{},{},{},{},
{},{},{},{},{},{},
{},{},{},{},{},{},{},{},{},
{},{},{},{},{},{},
{},{},{},{},{},{},{},{},{},{},{},{},{},{},{},{},{},{}];
*/

nPrecedences = 10; %inventat

predecessors = [6,6,6,6,7,8,10,15,20,21]; %inventat
successors = [9,10,11,12,13,16,11,18,24,27]; %inventat

needsLabRoom = [false,false,false,false,false,
  false, true,false,false, true,false,false,
  false,false, true,false,false,false,
  false,false,false,false,false, true,false,false,false,
  false,false,false,false,false,false,
  false,false, true,false,false,false,false,false,false,false,
   true,false, true,false,false,false,false,false];
  
needsClassRoom = [false,false,false,false,false,
   true,false,false,false,false,false, true,
   true, true,false,false, true, true,
   true, true, true, true, true,false, true, true, true,
   true, true, true, true, true, true,
  false,false,false,false,false,false,false,false,false,false,
  false,false,false,false,false,false,false,false];
  
needsPcRoom = [false,false,false,false,false,
  false,false, true, true,false, true,false,
  false,false,false, true,false,false,
  false,false,false,false,false,false,false,false,false,
  false,false,false,false,false,false,
   true, true,false, true, true, true, true, true, true, true,
  false, true,false, true, true, true, true, true];